p cnf 845 2630
-1 -2 51 0
1 -2 -51 0
-1 2 -51 0
1 2 51 0
6 7 52 0
-6 7 -52 0
6 -7 -52 0
-6 -7 52 0
-9 -10 53 0
9 -10 -53 0
-9 10 -53 0
9 10 53 0
-15 -16 54 0
15 -16 -54 0
-15 16 -54 0
15 16 54 0
-17 -19 55 0
17 -19 -55 0
-17 19 -55 0
17 19 55 0
-21 24 56 0
21 24 -56 0
-21 -24 -56 0
21 -24 56 0
-25 26 57 0
25 26 -57 0
-25 -26 -57 0
25 -26 57 0
30 33 58 0
-30 33 -58 0
30 -33 -58 0
-30 -33 58 0
-37 -41 59 0
37 -41 -59 0
-37 41 -59 0
37 41 59 0
-42 44 60 0
42 44 -60 0
-42 -44 -60 0
42 -44 60 0
51 -52 61 0
-51 -52 -61 0
51 52 -61 0
-51 52 61 0
53 -54 62 0
-53 -54 -62 0
53 54 -62 0
-53 54 62 0
55 -56 63 0
-55 -56 -63 0
55 56 -63 0
-55 56 63 0
57 -58 64 0
-57 -58 -64 0
57 58 -64 0
-57 58 64 0
59 -60 65 0
-59 -60 -65 0
59 60 -65 0
-59 60 65 0
61 -62 66 0
-61 -62 -66 0
61 62 -66 0
-61 62 66 0
63 -64 67 0
-63 -64 -67 0
63 64 -67 0
-63 64 67 0
-65 -66 67 0
65 -66 -67 0
-65 66 -67 0
65 66 67 0
1 -2 68 0
-1 -2 -68 0
1 2 -68 0
-1 2 68 0
4 5 69 0
-4 5 -69 0
4 -5 -69 0
-4 -5 69 0
8 -9 70 0
-8 -9 -70 0
8 9 -70 0
-8 9 70 0
12 -14 71 0
-12 -14 -71 0
12 14 -71 0
-12 14 71 0
-17 18 72 0
17 18 -72 0
-17 -18 -72 0
17 -18 72 0
19 -20 73 0
-19 -20 -73 0
19 20 -73 0
-19 20 73 0
21 -22 74 0
-21 -22 -74 0
21 22 -74 0
-21 22 74 0
28 -29 75 0
-28 -29 -75 0
28 29 -75 0
-28 29 75 0
-30 31 76 0
30 31 -76 0
-30 -31 -76 0
30 -31 76 0
-32 33 77 0
32 33 -77 0
-32 -33 -77 0
32 -33 77 0
35 -36 78 0
-35 -36 -78 0
35 36 -78 0
-35 36 78 0
37 39 79 0
-37 39 -79 0
37 -39 -79 0
-37 -39 79 0
-40 42 80 0
40 42 -80 0
-40 -42 -80 0
40 -42 80 0
67 -68 81 0
-67 -68 -81 0
67 68 -81 0
-67 68 81 0
69 -70 82 0
-69 -70 -82 0
69 70 -82 0
-69 70 82 0
71 -72 83 0
-71 -72 -83 0
71 72 -83 0
-71 72 83 0
73 -74 84 0
-73 -74 -84 0
73 74 -84 0
-73 74 84 0
75 -76 85 0
-75 -76 -85 0
75 76 -85 0
-75 76 85 0
77 -78 86 0
-77 -78 -86 0
77 78 -86 0
-77 78 86 0
79 -80 87 0
-79 -80 -87 0
79 80 -87 0
-79 80 87 0
81 -82 88 0
-81 -82 -88 0
81 82 -88 0
-81 82 88 0
83 -84 89 0
-83 -84 -89 0
83 84 -89 0
-83 84 89 0
85 -86 90 0
-85 -86 -90 0
85 86 -90 0
-85 86 90 0
87 -88 91 0
-87 -88 -91 0
87 88 -91 0
-87 88 91 0
89 -90 92 0
-89 -90 -92 0
89 90 -92 0
-89 90 92 0
91 92 0
-91 -92 0
-1 4 93 0
1 4 -93 0
-1 -4 -93 0
1 -4 93 0
9 11 94 0
-9 11 -94 0
9 -11 -94 0
-9 -11 94 0
-15 -16 95 0
15 -16 -95 0
-15 16 -95 0
15 16 95 0
23 24 96 0
-23 24 -96 0
23 -24 -96 0
-23 -24 96 0
-26 30 97 0
26 30 -97 0
-26 -30 -97 0
26 -30 97 0
-36 -37 98 0
36 -37 -98 0
-36 37 -98 0
36 37 98 0
-40 -41 99 0
40 -41 -99 0
-40 41 -99 0
40 41 99 0
-42 -43 100 0
42 -43 -100 0
-42 43 -100 0
42 43 100 0
44 -45 101 0
-44 -45 -101 0
44 45 -101 0
-44 45 101 0
49 -50 102 0
-49 -50 -102 0
49 50 -102 0
-49 50 102 0
93 -94 103 0
-93 -94 -103 0
93 94 -103 0
-93 94 103 0
95 -96 104 0
-95 -96 -104 0
95 96 -104 0
-95 96 104 0
97 -98 105 0
-97 -98 -105 0
97 98 -105 0
-97 98 105 0
99 -100 106 0
-99 -100 -106 0
99 100 -106 0
-99 100 106 0
101 -102 107 0
-101 -102 -107 0
101 102 -107 0
-101 102 107 0
103 -104 108 0
-103 -104 -108 0
103 104 -108 0
-103 104 108 0
105 -106 109 0
-105 -106 -109 0
105 106 -109 0
-105 106 109 0
-107 -108 109 0
107 -108 -109 0
-107 108 -109 0
107 108 109 0
-3 4 110 0
3 4 -110 0
-3 -4 -110 0
3 -4 110 0
-5 6 111 0
5 6 -111 0
-5 -6 -111 0
5 -6 111 0
-7 -8 112 0
7 -8 -112 0
-7 8 -112 0
7 8 112 0
-11 -12 113 0
11 -12 -113 0
-11 12 -113 0
11 12 113 0
-13 15 114 0
13 15 -114 0
-13 -15 -114 0
13 -15 114 0
-17 18 115 0
17 18 -115 0
-17 -18 -115 0
17 -18 115 0
-21 23 116 0
21 23 -116 0
-21 -23 -116 0
21 -23 116 0
24 25 117 0
-24 25 -117 0
24 -25 -117 0
-24 -25 117 0
-27 -28 118 0
27 -28 -118 0
-27 28 -118 0
27 28 118 0
-31 -32 119 0
31 -32 -119 0
-31 32 -119 0
31 32 119 0
-33 35 120 0
33 35 -120 0
-33 -35 -120 0
33 -35 120 0
-37 -38 121 0
37 -38 -121 0
-37 38 -121 0
37 38 121 0
45 46 122 0
-45 46 -122 0
45 -46 -122 0
-45 -46 122 0
-47 -50 123 0
47 -50 -123 0
-47 50 -123 0
47 50 123 0
110 -111 124 0
-110 -111 -124 0
110 111 -124 0
-110 111 124 0
112 -113 125 0
-112 -113 -125 0
112 113 -125 0
-112 113 125 0
114 -115 126 0
-114 -115 -126 0
114 115 -126 0
-114 115 126 0
116 -117 127 0
-116 -117 -127 0
116 117 -127 0
-116 117 127 0
118 -119 128 0
-118 -119 -128 0
118 119 -128 0
-118 119 128 0
120 -121 129 0
-120 -121 -129 0
120 121 -129 0
-120 121 129 0
122 -123 130 0
-122 -123 -130 0
122 123 -130 0
-122 123 130 0
124 -125 131 0
-124 -125 -131 0
124 125 -131 0
-124 125 131 0
126 -127 132 0
-126 -127 -132 0
126 127 -132 0
-126 127 132 0
128 -129 133 0
-128 -129 -133 0
128 129 -133 0
-128 129 133 0
130 -131 134 0
-130 -131 -134 0
130 131 -134 0
-130 131 134 0
132 -133 135 0
-132 -133 -135 0
132 133 -135 0
-132 133 135 0
134 135 0
-134 -135 0
-1 2 136 0
1 2 -136 0
-1 -2 -136 0
1 -2 136 0
3 4 137 0
-3 4 -137 0
3 -4 -137 0
-3 -4 137 0
-5 -6 138 0
5 -6 -138 0
-5 6 -138 0
5 6 138 0
-7 -8 139 0
7 -8 -139 0
-7 8 -139 0
7 8 139 0
-9 10 140 0
9 10 -140 0
-9 -10 -140 0
9 -10 140 0
12 -14 141 0
-12 -14 -141 0
12 14 -141 0
-12 14 141 0
17 20 142 0
-17 20 -142 0
17 -20 -142 0
-17 -20 142 0
21 22 143 0
-21 22 -143 0
21 -22 -143 0
-21 -22 143 0
25 27 144 0
-25 27 -144 0
25 -27 -144 0
-25 -27 144 0
28 32 145 0
-28 32 -145 0
28 -32 -145 0
-28 -32 145 0
33 -36 146 0
-33 -36 -146 0
33 36 -146 0
-33 36 146 0
38 40 147 0
-38 40 -147 0
38 -40 -147 0
-38 -40 147 0
42 44 148 0
-42 44 -148 0
42 -44 -148 0
-42 -44 148 0
45 47 149 0
-45 47 -149 0
45 -47 -149 0
-45 -47 149 0
48 -50 150 0
-48 -50 -150 0
48 50 -150 0
-48 50 150 0
136 -137 151 0
-136 -137 -151 0
136 137 -151 0
-136 137 151 0
138 -139 152 0
-138 -139 -152 0
138 139 -152 0
-138 139 152 0
140 -141 153 0
-140 -141 -153 0
140 141 -153 0
-140 141 153 0
142 -143 154 0
-142 -143 -154 0
142 143 -154 0
-142 143 154 0
144 -145 155 0
-144 -145 -155 0
144 145 -155 0
-144 145 155 0
146 -147 156 0
-146 -147 -156 0
146 147 -156 0
-146 147 156 0
148 -149 157 0
-148 -149 -157 0
148 149 -157 0
-148 149 157 0
150 -151 158 0
-150 -151 -158 0
150 151 -158 0
-150 151 158 0
152 -153 159 0
-152 -153 -159 0
152 153 -159 0
-152 153 159 0
154 -155 160 0
-154 -155 -160 0
154 155 -160 0
-154 155 160 0
156 -157 161 0
-156 -157 -161 0
156 157 -161 0
-156 157 161 0
158 -159 162 0
-158 -159 -162 0
158 159 -162 0
-158 159 162 0
160 -161 163 0
-160 -161 -163 0
160 161 -163 0
-160 161 163 0
162 163 0
-162 -163 0
-1 6 164 0
1 6 -164 0
-1 -6 -164 0
1 -6 164 0
-9 10 165 0
9 10 -165 0
-9 -10 -165 0
9 -10 165 0
-13 -14 166 0
13 -14 -166 0
-13 14 -166 0
13 14 166 0
-15 17 167 0
15 17 -167 0
-15 -17 -167 0
15 -17 167 0
-18 -22 168 0
18 -22 -168 0
-18 22 -168 0
18 22 168 0
23 24 169 0
-23 24 -169 0
23 -24 -169 0
-23 -24 169 0
-25 27 170 0
25 27 -170 0
-25 -27 -170 0
25 -27 170 0
28 30 171 0
-28 30 -171 0
28 -30 -171 0
-28 -30 171 0
33 34 172 0
-33 34 -172 0
33 -34 -172 0
-33 -34 172 0
35 38 173 0
-35 38 -173 0
35 -38 -173 0
-35 -38 173 0
-39 -42 174 0
39 -42 -174 0
-39 42 -174 0
39 42 174 0
-43 -44 175 0
43 -44 -175 0
-43 44 -175 0
43 44 175 0
46 -47 176 0
-46 -47 -176 0
46 47 -176 0
-46 47 176 0
48 -50 177 0
-48 -50 -177 0
48 50 -177 0
-48 50 177 0
164 -165 178 0
-164 -165 -178 0
164 165 -178 0
-164 165 178 0
166 -167 179 0
-166 -167 -179 0
166 167 -179 0
-166 167 179 0
168 -169 180 0
-168 -169 -180 0
168 169 -180 0
-168 169 180 0
170 -171 181 0
-170 -171 -181 0
170 171 -181 0
-170 171 181 0
172 -173 182 0
-172 -173 -182 0
172 173 -182 0
-172 173 182 0
174 -175 183 0
-174 -175 -183 0
174 175 -183 0
-174 175 183 0
176 -177 184 0
-176 -177 -184 0
176 177 -184 0
-176 177 184 0
178 -179 185 0
-178 -179 -185 0
178 179 -185 0
-178 179 185 0
180 -181 186 0
-180 -181 -186 0
180 181 -186 0
-180 181 186 0
182 -183 187 0
-182 -183 -187 0
182 183 -187 0
-182 183 187 0
184 -185 188 0
-184 -185 -188 0
184 185 -188 0
-184 185 188 0
186 -187 189 0
-186 -187 -189 0
186 187 -189 0
-186 187 189 0
188 189 0
-188 -189 0
4 -5 190 0
-4 -5 -190 0
4 5 -190 0
-4 5 190 0
9 -14 191 0
-9 -14 -191 0
9 14 -191 0
-9 14 191 0
15 16 192 0
-15 16 -192 0
15 -16 -192 0
-15 -16 192 0
17 18 193 0
-17 18 -193 0
17 -18 -193 0
-17 -18 193 0
-19 20 194 0
19 20 -194 0
-19 -20 -194 0
19 -20 194 0
-21 -22 195 0
21 -22 -195 0
-21 22 -195 0
21 22 195 0
25 -26 196 0
-25 -26 -196 0
25 26 -196 0
-25 26 196 0
31 33 197 0
-31 33 -197 0
31 -33 -197 0
-31 -33 197 0
35 36 198 0
-35 36 -198 0
35 -36 -198 0
-35 -36 198 0
39 40 199 0
-39 40 -199 0
39 -40 -199 0
-39 -40 199 0
-41 42 200 0
41 42 -200 0
-41 -42 -200 0
41 -42 200 0
-43 -49 201 0
43 -49 -201 0
-43 49 -201 0
43 49 201 0
190 -191 202 0
-190 -191 -202 0
190 191 -202 0
-190 191 202 0
192 -193 203 0
-192 -193 -203 0
192 193 -203 0
-192 193 203 0
194 -195 204 0
-194 -195 -204 0
194 195 -204 0
-194 195 204 0
196 -197 205 0
-196 -197 -205 0
196 197 -205 0
-196 197 205 0
198 -199 206 0
-198 -199 -206 0
198 199 -206 0
-198 199 206 0
200 -201 207 0
-200 -201 -207 0
200 201 -207 0
-200 201 207 0
202 -203 208 0
-202 -203 -208 0
202 203 -208 0
-202 203 208 0
204 -205 209 0
-204 -205 -209 0
204 205 -209 0
-204 205 209 0
206 -207 210 0
-206 -207 -210 0
206 207 -210 0
-206 207 210 0
-208 -209 210 0
208 -209 -210 0
-208 209 -210 0
208 209 210 0
-3 4 211 0
3 4 -211 0
-3 -4 -211 0
3 -4 211 0
5 6 212 0
-5 6 -212 0
5 -6 -212 0
-5 -6 212 0
7 -11 213 0
-7 -11 -213 0
7 11 -213 0
-7 11 213 0
-12 13 214 0
12 13 -214 0
-12 -13 -214 0
12 -13 214 0
17 18 215 0
-17 18 -215 0
17 -18 -215 0
-17 -18 215 0
20 21 216 0
-20 21 -216 0
20 -21 -216 0
-20 -21 216 0
-24 -28 217 0
24 -28 -217 0
-24 28 -217 0
24 28 217 0
-29 -30 218 0
29 -30 -218 0
-29 30 -218 0
29 30 218 0
-31 -36 219 0
31 -36 -219 0
-31 36 -219 0
31 36 219 0
39 -40 220 0
-39 -40 -220 0
39 40 -220 0
-39 40 220 0
41 43 221 0
-41 43 -221 0
41 -43 -221 0
-41 -43 221 0
210 -211 222 0
-210 -211 -222 0
210 211 -222 0
-210 211 222 0
212 -213 223 0
-212 -213 -223 0
212 213 -223 0
-212 213 223 0
214 -215 224 0
-214 -215 -224 0
214 215 -224 0
-214 215 224 0
216 -217 225 0
-216 -217 -225 0
216 217 -225 0
-216 217 225 0
218 -219 226 0
-218 -219 -226 0
218 219 -226 0
-218 219 226 0
220 -221 227 0
-220 -221 -227 0
220 221 -227 0
-220 221 227 0
222 -223 228 0
-222 -223 -228 0
222 223 -228 0
-222 223 228 0
224 -225 229 0
-224 -225 -229 0
224 225 -229 0
-224 225 229 0
226 -227 230 0
-226 -227 -230 0
226 227 -230 0
-226 227 230 0
-228 -229 230 0
228 -229 -230 0
-228 229 -230 0
228 229 230 0
-1 -3 231 0
1 -3 -231 0
-1 3 -231 0
1 3 231 0
5 6 232 0
-5 6 -232 0
5 -6 -232 0
-5 -6 232 0
-11 -16 233 0
11 -16 -233 0
-11 16 -233 0
11 16 233 0
17 -19 234 0
-17 -19 -234 0
17 19 -234 0
-17 19 234 0
21 22 235 0
-21 22 -235 0
21 -22 -235 0
-21 -22 235 0
23 -25 236 0
-23 -25 -236 0
23 25 -236 0
-23 25 236 0
-27 -28 237 0
27 -28 -237 0
-27 28 -237 0
27 28 237 0
29 -30 238 0
-29 -30 -238 0
29 30 -238 0
-29 30 238 0
-32 -33 239 0
32 -33 -239 0
-32 33 -239 0
32 33 239 0
-36 -42 240 0
36 -42 -240 0
-36 42 -240 0
36 42 240 0
44 45 241 0
-44 45 -241 0
44 -45 -241 0
-44 -45 241 0
46 -48 242 0
-46 -48 -242 0
46 48 -242 0
-46 48 242 0
230 -231 243 0
-230 -231 -243 0
230 231 -243 0
-230 231 243 0
232 -233 244 0
-232 -233 -244 0
232 233 -244 0
-232 233 244 0
234 -235 245 0
-234 -235 -245 0
234 235 -245 0
-234 235 245 0
236 -237 246 0
-236 -237 -246 0
236 237 -246 0
-236 237 246 0
238 -239 247 0
-238 -239 -247 0
238 239 -247 0
-238 239 247 0
240 -241 248 0
-240 -241 -248 0
240 241 -248 0
-240 241 248 0
242 -243 249 0
-242 -243 -249 0
242 243 -249 0
-242 243 249 0
244 -245 250 0
-244 -245 -250 0
244 245 -250 0
-244 245 250 0
246 -247 251 0
-246 -247 -251 0
246 247 -251 0
-246 247 251 0
248 -249 252 0
-248 -249 -252 0
248 249 -252 0
-248 249 252 0
250 -251 253 0
-250 -251 -253 0
250 251 -253 0
-250 251 253 0
252 253 0
-252 -253 0
-1 -2 254 0
1 -2 -254 0
-1 2 -254 0
1 2 254 0
-6 -7 255 0
6 -7 -255 0
-6 7 -255 0
6 7 255 0
10 11 256 0
-10 11 -256 0
10 -11 -256 0
-10 -11 256 0
-13 17 257 0
13 17 -257 0
-13 -17 -257 0
13 -17 257 0
-19 -21 258 0
19 -21 -258 0
-19 21 -258 0
19 21 258 0
-22 23 259 0
22 23 -259 0
-22 -23 -259 0
22 -23 259 0
25 -28 260 0
-25 -28 -260 0
25 28 -260 0
-25 28 260 0
-29 32 261 0
29 32 -261 0
-29 -32 -261 0
29 -32 261 0
-34 -36 262 0
34 -36 -262 0
-34 36 -262 0
34 36 262 0
38 -41 263 0
-38 -41 -263 0
38 41 -263 0
-38 41 263 0
42 -43 264 0
-42 -43 -264 0
42 43 -264 0
-42 43 264 0
-45 -48 265 0
45 -48 -265 0
-45 48 -265 0
45 48 265 0
-49 50 266 0
49 50 -266 0
-49 -50 -266 0
49 -50 266 0
254 -255 267 0
-254 -255 -267 0
254 255 -267 0
-254 255 267 0
256 -257 268 0
-256 -257 -268 0
256 257 -268 0
-256 257 268 0
258 -259 269 0
-258 -259 -269 0
258 259 -269 0
-258 259 269 0
260 -261 270 0
-260 -261 -270 0
260 261 -270 0
-260 261 270 0
262 -263 271 0
-262 -263 -271 0
262 263 -271 0
-262 263 271 0
264 -265 272 0
-264 -265 -272 0
264 265 -272 0
-264 265 272 0
266 -267 273 0
-266 -267 -273 0
266 267 -273 0
-266 267 273 0
268 -269 274 0
-268 -269 -274 0
268 269 -274 0
-268 269 274 0
270 -271 275 0
-270 -271 -275 0
270 271 -275 0
-270 271 275 0
272 -273 276 0
-272 -273 -276 0
272 273 -276 0
-272 273 276 0
274 -275 277 0
-274 -275 -277 0
274 275 -277 0
-274 275 277 0
276 277 0
-276 -277 0
2 4 278 0
-2 4 -278 0
2 -4 -278 0
-2 -4 278 0
-5 6 279 0
5 6 -279 0
-5 -6 -279 0
5 -6 279 0
-8 -9 280 0
8 -9 -280 0
-8 9 -280 0
8 9 280 0
10 13 281 0
-10 13 -281 0
10 -13 -281 0
-10 -13 281 0
-14 -19 282 0
14 -19 -282 0
-14 19 -282 0
14 19 282 0
-22 24 283 0
22 24 -283 0
-22 -24 -283 0
22 -24 283 0
25 27 284 0
-25 27 -284 0
25 -27 -284 0
-25 -27 284 0
29 -32 285 0
-29 -32 -285 0
29 32 -285 0
-29 32 285 0
34 35 286 0
-34 35 -286 0
34 -35 -286 0
-34 -35 286 0
-36 37 287 0
36 37 -287 0
-36 -37 -287 0
36 -37 287 0
-41 43 288 0
41 43 -288 0
-41 -43 -288 0
41 -43 288 0
46 47 289 0
-46 47 -289 0
46 -47 -289 0
-46 -47 289 0
-48 -49 290 0
48 -49 -290 0
-48 49 -290 0
48 49 290 0
278 -279 291 0
-278 -279 -291 0
278 279 -291 0
-278 279 291 0
280 -281 292 0
-280 -281 -292 0
280 281 -292 0
-280 281 292 0
282 -283 293 0
-282 -283 -293 0
282 283 -293 0
-282 283 293 0
284 -285 294 0
-284 -285 -294 0
284 285 -294 0
-284 285 294 0
286 -287 295 0
-286 -287 -295 0
286 287 -295 0
-286 287 295 0
288 -289 296 0
-288 -289 -296 0
288 289 -296 0
-288 289 296 0
290 -291 297 0
-290 -291 -297 0
290 291 -297 0
-290 291 297 0
292 -293 298 0
-292 -293 -298 0
292 293 -298 0
-292 293 298 0
294 -295 299 0
-294 -295 -299 0
294 295 -299 0
-294 295 299 0
296 -297 300 0
-296 -297 -300 0
296 297 -300 0
-296 297 300 0
298 -299 301 0
-298 -299 -301 0
298 299 -301 0
-298 299 301 0
300 301 0
-300 -301 0
-2 3 302 0
2 3 -302 0
-2 -3 -302 0
2 -3 302 0
5 -7 303 0
-5 -7 -303 0
5 7 -303 0
-5 7 303 0
8 9 304 0
-8 9 -304 0
8 -9 -304 0
-8 -9 304 0
10 -11 305 0
-10 -11 -305 0
10 11 -305 0
-10 11 305 0
15 16 306 0
-15 16 -306 0
15 -16 -306 0
-15 -16 306 0
-18 19 307 0
18 19 -307 0
-18 -19 -307 0
18 -19 307 0
-20 21 308 0
20 21 -308 0
-20 -21 -308 0
20 -21 308 0
-27 28 309 0
27 28 -309 0
-27 -28 -309 0
27 -28 309 0
29 -30 310 0
-29 -30 -310 0
29 30 -310 0
-29 30 310 0
-31 -32 311 0
31 -32 -311 0
-31 32 -311 0
31 32 311 0
-34 35 312 0
34 35 -312 0
-34 -35 -312 0
34 -35 312 0
39 40 313 0
-39 40 -313 0
39 -40 -313 0
-39 -40 313 0
-46 47 314 0
46 47 -314 0
-46 -47 -314 0
46 -47 314 0
48 49 315 0
-48 49 -315 0
48 -49 -315 0
-48 -49 315 0
302 -303 316 0
-302 -303 -316 0
302 303 -316 0
-302 303 316 0
304 -305 317 0
-304 -305 -317 0
304 305 -317 0
-304 305 317 0
306 -307 318 0
-306 -307 -318 0
306 307 -318 0
-306 307 318 0
308 -309 319 0
-308 -309 -319 0
308 309 -319 0
-308 309 319 0
310 -311 320 0
-310 -311 -320 0
310 311 -320 0
-310 311 320 0
312 -313 321 0
-312 -313 -321 0
312 313 -321 0
-312 313 321 0
314 -315 322 0
-314 -315 -322 0
314 315 -322 0
-314 315 322 0
316 -317 323 0
-316 -317 -323 0
316 317 -323 0
-316 317 323 0
318 -319 324 0
-318 -319 -324 0
318 319 -324 0
-318 319 324 0
320 -321 325 0
-320 -321 -325 0
320 321 -325 0
-320 321 325 0
322 -323 326 0
-322 -323 -326 0
322 323 -326 0
-322 323 326 0
324 -325 327 0
-324 -325 -327 0
324 325 -327 0
-324 325 327 0
326 327 0
-326 -327 0
-4 6 328 0
4 6 -328 0
-4 -6 -328 0
4 -6 328 0
-7 11 329 0
7 11 -329 0
-7 -11 -329 0
7 -11 329 0
14 -16 330 0
-14 -16 -330 0
14 16 -330 0
-14 16 330 0
17 -19 331 0
-17 -19 -331 0
17 19 -331 0
-17 19 331 0
20 -22 332 0
-20 -22 -332 0
20 22 -332 0
-20 22 332 0
28 -31 333 0
-28 -31 -333 0
28 31 -333 0
-28 31 333 0
32 33 334 0
-32 33 -334 0
32 -33 -334 0
-32 -33 334 0
34 -36 335 0
-34 -36 -335 0
34 36 -335 0
-34 36 335 0
-39 -41 336 0
39 -41 -336 0
-39 41 -336 0
39 41 336 0
42 -48 337 0
-42 -48 -337 0
42 48 -337 0
-42 48 337 0
327 -328 338 0
-327 -328 -338 0
327 328 -338 0
-327 328 338 0
329 -330 339 0
-329 -330 -339 0
329 330 -339 0
-329 330 339 0
331 -332 340 0
-331 -332 -340 0
331 332 -340 0
-331 332 340 0
333 -334 341 0
-333 -334 -341 0
333 334 -341 0
-333 334 341 0
335 -336 342 0
-335 -336 -342 0
335 336 -342 0
-335 336 342 0
337 -338 343 0
-337 -338 -343 0
337 338 -343 0
-337 338 343 0
339 -340 344 0
-339 -340 -344 0
339 340 -344 0
-339 340 344 0
341 -342 345 0
-341 -342 -345 0
341 342 -345 0
-341 342 345 0
-343 -344 345 0
343 -344 -345 0
-343 344 -345 0
343 344 345 0
-1 -2 346 0
1 -2 -346 0
-1 2 -346 0
1 2 346 0
-6 7 347 0
6 7 -347 0
-6 -7 -347 0
6 -7 347 0
-9 -11 348 0
9 -11 -348 0
-9 11 -348 0
9 11 348 0
12 19 349 0
-12 19 -349 0
12 -19 -349 0
-12 -19 349 0
23 24 350 0
-23 24 -350 0
23 -24 -350 0
-23 -24 350 0
28 33 351 0
-28 33 -351 0
28 -33 -351 0
-28 -33 351 0
35 -36 352 0
-35 -36 -352 0
35 36 -352 0
-35 36 352 0
37 -40 353 0
-37 -40 -353 0
37 40 -353 0
-37 40 353 0
42 -44 354 0
-42 -44 -354 0
42 44 -354 0
-42 44 354 0
47 -49 355 0
-47 -49 -355 0
47 49 -355 0
-47 49 355 0
346 -347 356 0
-346 -347 -356 0
346 347 -356 0
-346 347 356 0
348 -349 357 0
-348 -349 -357 0
348 349 -357 0
-348 349 357 0
350 -351 358 0
-350 -351 -358 0
350 351 -358 0
-350 351 358 0
352 -353 359 0
-352 -353 -359 0
352 353 -359 0
-352 353 359 0
354 -355 360 0
-354 -355 -360 0
354 355 -360 0
-354 355 360 0
356 -357 361 0
-356 -357 -361 0
356 357 -361 0
-356 357 361 0
358 -359 362 0
-358 -359 -362 0
358 359 -362 0
-358 359 362 0
-360 -361 362 0
360 -361 -362 0
-360 361 -362 0
360 361 362 0
-2 -3 363 0
2 -3 -363 0
-2 3 -363 0
2 3 363 0
-4 5 364 0
4 5 -364 0
-4 -5 -364 0
4 -5 364 0
-7 9 365 0
7 9 -365 0
-7 -9 -365 0
7 -9 365 0
-10 11 366 0
10 11 -366 0
-10 -11 -366 0
10 -11 366 0
12 -13 367 0
-12 -13 -367 0
12 13 -367 0
-12 13 367 0
14 16 368 0
-14 16 -368 0
14 -16 -368 0
-14 -16 368 0
-18 -19 369 0
18 -19 -369 0
-18 19 -369 0
18 19 369 0
-21 22 370 0
21 22 -370 0
-21 -22 -370 0
21 -22 370 0
-24 -26 371 0
24 -26 -371 0
-24 26 -371 0
24 26 371 0
27 -31 372 0
-27 -31 -372 0
27 31 -372 0
-27 31 372 0
34 35 373 0
-34 35 -373 0
34 -35 -373 0
-34 -35 373 0
37 38 374 0
-37 38 -374 0
37 -38 -374 0
-37 -38 374 0
-39 -40 375 0
39 -40 -375 0
-39 40 -375 0
39 40 375 0
44 -45 376 0
-44 -45 -376 0
44 45 -376 0
-44 45 376 0
46 47 377 0
-46 47 -377 0
46 -47 -377 0
-46 -47 377 0
362 -363 378 0
-362 -363 -378 0
362 363 -378 0
-362 363 378 0
364 -365 379 0
-364 -365 -379 0
364 365 -379 0
-364 365 379 0
366 -367 380 0
-366 -367 -380 0
366 367 -380 0
-366 367 380 0
368 -369 381 0
-368 -369 -381 0
368 369 -381 0
-368 369 381 0
370 -371 382 0
-370 -371 -382 0
370 371 -382 0
-370 371 382 0
372 -373 383 0
-372 -373 -383 0
372 373 -383 0
-372 373 383 0
374 -375 384 0
-374 -375 -384 0
374 375 -384 0
-374 375 384 0
376 -377 385 0
-376 -377 -385 0
376 377 -385 0
-376 377 385 0
378 -379 386 0
-378 -379 -386 0
378 379 -386 0
-378 379 386 0
380 -381 387 0
-380 -381 -387 0
380 381 -387 0
-380 381 387 0
382 -383 388 0
-382 -383 -388 0
382 383 -388 0
-382 383 388 0
384 -385 389 0
-384 -385 -389 0
384 385 -389 0
-384 385 389 0
386 -387 390 0
-386 -387 -390 0
386 387 -390 0
-386 387 390 0
388 -389 391 0
-388 -389 -391 0
388 389 -391 0
-388 389 391 0
390 391 0
-390 -391 0
2 3 392 0
-2 3 -392 0
2 -3 -392 0
-2 -3 392 0
7 -9 393 0
-7 -9 -393 0
7 9 -393 0
-7 9 393 0
-10 12 394 0
10 12 -394 0
-10 -12 -394 0
10 -12 394 0
13 -14 395 0
-13 -14 -395 0
13 14 -395 0
-13 14 395 0
15 -16 396 0
-15 -16 -396 0
15 16 -396 0
-15 16 396 0
17 18 397 0
-17 18 -397 0
17 -18 -397 0
-17 -18 397 0
-19 23 398 0
19 23 -398 0
-19 -23 -398 0
19 -23 398 0
24 -25 399 0
-24 -25 -399 0
24 25 -399 0
-24 25 399 0
-26 31 400 0
26 31 -400 0
-26 -31 -400 0
26 -31 400 0
33 35 401 0
-33 35 -401 0
33 -35 -401 0
-33 -35 401 0
-40 -45 402 0
40 -45 -402 0
-40 45 -402 0
40 45 402 0
391 -392 403 0
-391 -392 -403 0
391 392 -403 0
-391 392 403 0
393 -394 404 0
-393 -394 -404 0
393 394 -404 0
-393 394 404 0
395 -396 405 0
-395 -396 -405 0
395 396 -405 0
-395 396 405 0
397 -398 406 0
-397 -398 -406 0
397 398 -406 0
-397 398 406 0
399 -400 407 0
-399 -400 -407 0
399 400 -407 0
-399 400 407 0
401 -402 408 0
-401 -402 -408 0
401 402 -408 0
-401 402 408 0
403 -404 409 0
-403 -404 -409 0
403 404 -409 0
-403 404 409 0
405 -406 410 0
-405 -406 -410 0
405 406 -410 0
-405 406 410 0
407 -408 411 0
-407 -408 -411 0
407 408 -411 0
-407 408 411 0
-409 -410 411 0
409 -410 -411 0
-409 410 -411 0
409 410 411 0
1 -2 412 0
-1 -2 -412 0
1 2 -412 0
-1 2 412 0
-3 -4 413 0
3 -4 -413 0
-3 4 -413 0
3 4 413 0
-9 10 414 0
9 10 -414 0
-9 -10 -414 0
9 -10 414 0
12 13 415 0
-12 13 -415 0
12 -13 -415 0
-12 -13 415 0
-14 15 416 0
14 15 -416 0
-14 -15 -416 0
14 -15 416 0
18 21 417 0
-18 21 -417 0
18 -21 -417 0
-18 -21 417 0
24 -28 418 0
-24 -28 -418 0
24 28 -418 0
-24 28 418 0
-29 -30 419 0
29 -30 -419 0
-29 30 -419 0
29 30 419 0
35 37 420 0
-35 37 -420 0
35 -37 -420 0
-35 -37 420 0
-38 -41 421 0
38 -41 -421 0
-38 41 -421 0
38 41 421 0
42 -44 422 0
-42 -44 -422 0
42 44 -422 0
-42 44 422 0
412 -413 423 0
-412 -413 -423 0
412 413 -423 0
-412 413 423 0
414 -415 424 0
-414 -415 -424 0
414 415 -424 0
-414 415 424 0
416 -417 425 0
-416 -417 -425 0
416 417 -425 0
-416 417 425 0
418 -419 426 0
-418 -419 -426 0
418 419 -426 0
-418 419 426 0
420 -421 427 0
-420 -421 -427 0
420 421 -427 0
-420 421 427 0
422 -423 428 0
-422 -423 -428 0
422 423 -428 0
-422 423 428 0
424 -425 429 0
-424 -425 -429 0
424 425 -429 0
-424 425 429 0
426 -427 430 0
-426 -427 -430 0
426 427 -430 0
-426 427 430 0
-428 -429 430 0
428 -429 -430 0
-428 429 -430 0
428 429 430 0
-1 -2 431 0
1 -2 -431 0
-1 2 -431 0
1 2 431 0
3 -5 432 0
-3 -5 -432 0
3 5 -432 0
-3 5 432 0
-6 7 433 0
6 7 -433 0
-6 -7 -433 0
6 -7 433 0
9 -11 434 0
-9 -11 -434 0
9 11 -434 0
-9 11 434 0
12 -14 435 0
-12 -14 -435 0
12 14 -435 0
-12 14 435 0
15 16 436 0
-15 16 -436 0
15 -16 -436 0
-15 -16 436 0
18 -22 437 0
-18 -22 -437 0
18 22 -437 0
-18 22 437 0
24 25 438 0
-24 25 -438 0
24 -25 -438 0
-24 -25 438 0
26 31 439 0
-26 31 -439 0
26 -31 -439 0
-26 -31 439 0
-32 -33 440 0
32 -33 -440 0
-32 33 -440 0
32 33 440 0
-34 -36 441 0
34 -36 -441 0
-34 36 -441 0
34 36 441 0
-37 -38 442 0
37 -38 -442 0
-37 38 -442 0
37 38 442 0
39 -41 443 0
-39 -41 -443 0
39 41 -443 0
-39 41 443 0
-42 -44 444 0
42 -44 -444 0
-42 44 -444 0
42 44 444 0
-46 -47 445 0
46 -47 -445 0
-46 47 -445 0
46 47 445 0
-49 50 446 0
49 50 -446 0
-49 -50 -446 0
49 -50 446 0
431 -432 447 0
-431 -432 -447 0
431 432 -447 0
-431 432 447 0
433 -434 448 0
-433 -434 -448 0
433 434 -448 0
-433 434 448 0
435 -436 449 0
-435 -436 -449 0
435 436 -449 0
-435 436 449 0
437 -438 450 0
-437 -438 -450 0
437 438 -450 0
-437 438 450 0
439 -440 451 0
-439 -440 -451 0
439 440 -451 0
-439 440 451 0
441 -442 452 0
-441 -442 -452 0
441 442 -452 0
-441 442 452 0
443 -444 453 0
-443 -444 -453 0
443 444 -453 0
-443 444 453 0
445 -446 454 0
-445 -446 -454 0
445 446 -454 0
-445 446 454 0
447 -448 455 0
-447 -448 -455 0
447 448 -455 0
-447 448 455 0
449 -450 456 0
-449 -450 -456 0
449 450 -456 0
-449 450 456 0
451 -452 457 0
-451 -452 -457 0
451 452 -457 0
-451 452 457 0
453 -454 458 0
-453 -454 -458 0
453 454 -458 0
-453 454 458 0
455 -456 459 0
-455 -456 -459 0
455 456 -459 0
-455 456 459 0
457 -458 460 0
-457 -458 -460 0
457 458 -460 0
-457 458 460 0
459 460 0
-459 -460 0
2 5 461 0
-2 5 -461 0
2 -5 -461 0
-2 -5 461 0
6 7 462 0
-6 7 -462 0
6 -7 -462 0
-6 -7 462 0
8 -15 463 0
-8 -15 -463 0
8 15 -463 0
-8 15 463 0
16 17 464 0
-16 17 -464 0
16 -17 -464 0
-16 -17 464 0
18 -19 465 0
-18 -19 -465 0
18 19 -465 0
-18 19 465 0
-20 22 466 0
20 22 -466 0
-20 -22 -466 0
20 -22 466 0
-26 31 467 0
26 31 -467 0
-26 -31 -467 0
26 -31 467 0
32 -33 468 0
-32 -33 -468 0
32 33 -468 0
-32 33 468 0
36 -38 469 0
-36 -38 -469 0
36 38 -469 0
-36 38 469 0
39 -40 470 0
-39 -40 -470 0
39 40 -470 0
-39 40 470 0
-48 49 471 0
48 49 -471 0
-48 -49 -471 0
48 -49 471 0
461 -462 472 0
-461 -462 -472 0
461 462 -472 0
-461 462 472 0
463 -464 473 0
-463 -464 -473 0
463 464 -473 0
-463 464 473 0
465 -466 474 0
-465 -466 -474 0
465 466 -474 0
-465 466 474 0
467 -468 475 0
-467 -468 -475 0
467 468 -475 0
-467 468 475 0
469 -470 476 0
-469 -470 -476 0
469 470 -476 0
-469 470 476 0
471 -472 477 0
-471 -472 -477 0
471 472 -477 0
-471 472 477 0
473 -474 478 0
-473 -474 -478 0
473 474 -478 0
-473 474 478 0
475 -476 479 0
-475 -476 -479 0
475 476 -479 0
-475 476 479 0
-477 -478 479 0
477 -478 -479 0
-477 478 -479 0
477 478 479 0
3 5 480 0
-3 5 -480 0
3 -5 -480 0
-3 -5 480 0
-6 9 481 0
6 9 -481 0
-6 -9 -481 0
6 -9 481 0
10 -14 482 0
-10 -14 -482 0
10 14 -482 0
-10 14 482 0
15 -17 483 0
-15 -17 -483 0
15 17 -483 0
-15 17 483 0
-20 21 484 0
20 21 -484 0
-20 -21 -484 0
20 -21 484 0
-24 -25 485 0
24 -25 -485 0
-24 25 -485 0
24 25 485 0
-26 -29 486 0
26 -29 -486 0
-26 29 -486 0
26 29 486 0
-31 -32 487 0
31 -32 -487 0
-31 32 -487 0
31 32 487 0
-34 -35 488 0
34 -35 -488 0
-34 35 -488 0
34 35 488 0
-36 39 489 0
36 39 -489 0
-36 -39 -489 0
36 -39 489 0
-40 42 490 0
40 42 -490 0
-40 -42 -490 0
40 -42 490 0
-44 45 491 0
44 45 -491 0
-44 -45 -491 0
44 -45 491 0
48 49 492 0
-48 49 -492 0
48 -49 -492 0
-48 -49 492 0
479 -480 493 0
-479 -480 -493 0
479 480 -493 0
-479 480 493 0
481 -482 494 0
-481 -482 -494 0
481 482 -494 0
-481 482 494 0
483 -484 495 0
-483 -484 -495 0
483 484 -495 0
-483 484 495 0
485 -486 496 0
-485 -486 -496 0
485 486 -496 0
-485 486 496 0
487 -488 497 0
-487 -488 -497 0
487 488 -497 0
-487 488 497 0
489 -490 498 0
-489 -490 -498 0
489 490 -498 0
-489 490 498 0
491 -492 499 0
-491 -492 -499 0
491 492 -499 0
-491 492 499 0
493 -494 500 0
-493 -494 -500 0
493 494 -500 0
-493 494 500 0
495 -496 501 0
-495 -496 -501 0
495 496 -501 0
-495 496 501 0
497 -498 502 0
-497 -498 -502 0
497 498 -502 0
-497 498 502 0
499 -500 503 0
-499 -500 -503 0
499 500 -503 0
-499 500 503 0
501 -502 504 0
-501 -502 -504 0
501 502 -504 0
-501 502 504 0
503 504 0
-503 -504 0
-12 505 0
-24 505 0
-12 -24 506 0
-23 505 0
-12 -23 506 0
-24 -23 506 0
-12 -24 -23 507 0
-22 508 0
-21 508 0
-22 -21 509 0
-20 508 0
-22 -20 509 0
-21 -20 509 0
-22 -21 -20 510 0
-505 511 0
-506 512 0
-507 513 0
-508 511 0
-509 512 0
-510 513 0
-505 -508 512 0
-505 -509 513 0
-505 -510 514 0
-506 -508 513 0
-506 -509 514 0
-506 -510 515 0
-507 -508 514 0
-507 -509 515 0
-507 -510 516 0
-19 517 0
-18 517 0
-19 -18 518 0
-17 517 0
-19 -17 518 0
-18 -17 518 0
-19 -18 -17 519 0
-16 520 0
-15 520 0
-16 -15 521 0
-14 520 0
-16 -14 521 0
-15 -14 521 0
-16 -15 -14 522 0
-517 523 0
-518 524 0
-519 525 0
-520 523 0
-521 524 0
-522 525 0
-517 -520 524 0
-517 -521 525 0
-517 -522 526 0
-518 -520 525 0
-518 -521 526 0
-518 -522 527 0
-519 -520 526 0
-519 -521 527 0
-519 -522 528 0
-511 529 0
-513 530 0
-515 531 0
-523 529 0
-525 530 0
-527 531 0
-511 -523 530 0
-511 -525 531 0
-511 -527 532 0
-513 -523 531 0
-513 -525 532 0
-513 -527 533 0
-515 -523 532 0
-515 -525 533 0
-515 -527 534 0
-512 535 0
-514 536 0
-516 537 0
-524 535 0
-526 536 0
-528 537 0
-512 -524 536 0
-512 -526 537 0
-512 -528 538 0
-514 -524 537 0
-514 -526 538 0
-514 -528 539 0
-516 -524 538 0
-516 -526 539 0
-516 -528 540 0
-530 541 0
-535 541 0
-530 -535 542 0
-531 543 0
-536 543 0
-531 -536 544 0
-532 545 0
-537 545 0
-532 -537 546 0
-533 547 0
-538 547 0
-533 -538 548 0
-534 549 0
-539 549 0
-534 -539 550 0
-13 551 0
-25 551 0
-13 -25 552 0
-11 551 0
-13 -11 552 0
-25 -11 552 0
-13 -25 -11 553 0
-10 554 0
-9 554 0
-10 -9 555 0
-8 554 0
-10 -8 555 0
-9 -8 555 0
-10 -9 -8 556 0
-551 557 0
-552 558 0
-553 559 0
-554 557 0
-555 558 0
-556 559 0
-551 -554 558 0
-551 -555 559 0
-551 -556 560 0
-552 -554 559 0
-552 -555 560 0
-552 -556 561 0
-553 -554 560 0
-553 -555 561 0
-553 -556 562 0
-7 563 0
-6 563 0
-7 -6 564 0
-5 563 0
-7 -5 564 0
-6 -5 564 0
-7 -6 -5 565 0
-4 566 0
-3 566 0
-4 -3 567 0
-2 566 0
-4 -2 567 0
-3 -2 567 0
-4 -3 -2 568 0
-563 569 0
-564 570 0
-565 571 0
-566 569 0
-567 570 0
-568 571 0
-563 -566 570 0
-563 -567 571 0
-563 -568 572 0
-564 -566 571 0
-564 -567 572 0
-564 -568 573 0
-565 -566 572 0
-565 -567 573 0
-565 -568 574 0
-557 575 0
-559 576 0
-561 577 0
-569 575 0
-571 576 0
-573 577 0
-557 -569 576 0
-557 -571 577 0
-557 -573 578 0
-559 -569 577 0
-559 -571 578 0
-559 -573 579 0
-561 -569 578 0
-561 -571 579 0
-561 -573 580 0
-558 581 0
-560 582 0
-562 583 0
-570 581 0
-572 582 0
-574 583 0
-558 -570 582 0
-558 -572 583 0
-558 -574 584 0
-560 -570 583 0
-560 -572 584 0
-560 -574 585 0
-562 -570 584 0
-562 -572 585 0
-562 -574 586 0
-576 587 0
-581 587 0
-576 -581 588 0
-577 589 0
-582 589 0
-577 -582 590 0
-578 591 0
-583 591 0
-578 -583 592 0
-579 593 0
-584 593 0
-579 -584 594 0
-580 595 0
-585 595 0
-580 -585 596 0
-1 597 0
-37 597 0
-1 -37 598 0
-49 597 0
-1 -49 598 0
-37 -49 598 0
-1 -37 -49 599 0
-48 600 0
-47 600 0
-48 -47 601 0
-46 600 0
-48 -46 601 0
-47 -46 601 0
-48 -47 -46 602 0
-597 603 0
-598 604 0
-599 605 0
-600 603 0
-601 604 0
-602 605 0
-597 -600 604 0
-597 -601 605 0
-597 -602 606 0
-598 -600 605 0
-598 -601 606 0
-598 -602 607 0
-599 -600 606 0
-599 -601 607 0
-599 -602 608 0
-45 609 0
-44 609 0
-45 -44 610 0
-43 609 0
-45 -43 610 0
-44 -43 610 0
-45 -44 -43 611 0
-42 612 0
-41 612 0
-42 -41 613 0
-40 612 0
-42 -40 613 0
-41 -40 613 0
-42 -41 -40 614 0
-609 615 0
-610 616 0
-611 617 0
-612 615 0
-613 616 0
-614 617 0
-609 -612 616 0
-609 -613 617 0
-609 -614 618 0
-610 -612 617 0
-610 -613 618 0
-610 -614 619 0
-611 -612 618 0
-611 -613 619 0
-611 -614 620 0
-603 621 0
-605 622 0
-607 623 0
-615 621 0
-617 622 0
-619 623 0
-603 -615 622 0
-603 -617 623 0
-603 -619 624 0
-605 -615 623 0
-605 -617 624 0
-605 -619 625 0
-607 -615 624 0
-607 -617 625 0
-607 -619 626 0
-604 627 0
-606 628 0
-608 629 0
-616 627 0
-618 628 0
-620 629 0
-604 -616 628 0
-604 -618 629 0
-604 -620 630 0
-606 -616 629 0
-606 -618 630 0
-606 -620 631 0
-608 -616 630 0
-608 -618 631 0
-608 -620 632 0
-622 633 0
-627 633 0
-622 -627 634 0
-623 635 0
-628 635 0
-623 -628 636 0
-624 637 0
-629 637 0
-624 -629 638 0
-625 639 0
-630 639 0
-625 -630 640 0
-626 641 0
-631 641 0
-626 -631 642 0
-39 643 0
-38 643 0
-39 -38 644 0
-50 643 0
-39 -50 644 0
-38 -50 644 0
-39 -38 -50 645 0
-36 646 0
-35 646 0
-36 -35 647 0
-34 646 0
-36 -34 647 0
-35 -34 647 0
-36 -35 -34 648 0
-643 649 0
-644 650 0
-645 651 0
-646 649 0
-647 650 0
-648 651 0
-643 -646 650 0
-643 -647 651 0
-643 -648 652 0
-644 -646 651 0
-644 -647 652 0
-644 -648 653 0
-645 -646 652 0
-645 -647 653 0
-645 -648 654 0
-33 655 0
-32 655 0
-33 -32 656 0
-31 655 0
-33 -31 656 0
-32 -31 656 0
-33 -32 -31 657 0
-30 658 0
-29 658 0
-30 -29 659 0
-28 660 0
-27 660 0
-28 -27 661 0
-26 660 0
-28 -26 661 0
-27 -26 661 0
-28 -27 -26 662 0
-658 663 0
-659 664 0
-660 663 0
-661 664 0
-662 665 0
-658 -660 664 0
-658 -661 665 0
-658 -662 666 0
-659 -660 665 0
-659 -661 666 0
-659 -662 667 0
-655 668 0
-656 669 0
-657 670 0
-663 668 0
-664 669 0
-665 670 0
-666 671 0
-667 672 0
-655 -663 669 0
-655 -664 670 0
-655 -665 671 0
-655 -666 672 0
-655 -667 673 0
-656 -663 670 0
-656 -664 671 0
-656 -665 672 0
-656 -666 673 0
-656 -667 674 0
-657 -663 671 0
-657 -664 672 0
-657 -665 673 0
-657 -666 674 0
-657 -667 675 0
-649 676 0
-651 677 0
-653 678 0
-668 676 0
-670 677 0
-672 678 0
-674 679 0
-649 -668 677 0
-649 -670 678 0
-649 -672 679 0
-649 -674 680 0
-651 -668 678 0
-651 -670 679 0
-651 -672 680 0
-651 -674 681 0
-653 -668 679 0
-653 -670 680 0
-653 -672 681 0
-653 -674 682 0
-650 683 0
-652 684 0
-654 685 0
-669 683 0
-671 684 0
-673 685 0
-675 686 0
-650 -669 684 0
-650 -671 685 0
-650 -673 686 0
-650 -675 687 0
-652 -669 685 0
-652 -671 686 0
-652 -673 687 0
-652 -675 688 0
-654 -669 686 0
-654 -671 687 0
-654 -673 688 0
-654 -675 689 0
-677 690 0
-683 690 0
-677 -683 691 0
-678 692 0
-684 692 0
-678 -684 693 0
-679 694 0
-685 694 0
-679 -685 695 0
-680 696 0
-686 696 0
-680 -686 697 0
-681 698 0
-687 698 0
-681 -687 699 0
-682 700 0
-688 700 0
-682 -688 701 0
-621 702 0
-636 703 0
-640 704 0
-676 702 0
-693 703 0
-697 704 0
-701 705 0
-621 -676 703 0
-621 -693 704 0
-621 -697 705 0
-621 -701 706 0
-636 -676 704 0
-636 -693 705 0
-636 -697 706 0
-640 -676 705 0
-640 -693 706 0
-634 707 0
-638 708 0
-642 709 0
-691 707 0
-695 708 0
-699 709 0
-634 -691 708 0
-634 -695 709 0
-634 -699 710 0
-638 -691 709 0
-638 -695 710 0
-642 -691 710 0
-703 711 0
-707 711 0
-703 -707 712 0
-704 713 0
-708 713 0
-704 -708 714 0
-705 715 0
-709 715 0
-705 -709 716 0
-706 717 0
-710 717 0
-706 -710 718 0
-633 719 0
-637 720 0
-641 721 0
-690 719 0
-694 720 0
-698 721 0
-689 722 0
-633 -690 720 0
-633 -694 721 0
-633 -698 722 0
-633 -689 723 0
-637 -690 721 0
-637 -694 722 0
-637 -698 723 0
-641 -690 722 0
-641 -694 723 0
-635 724 0
-639 725 0
-632 726 0
-692 724 0
-696 725 0
-700 726 0
-635 -692 725 0
-635 -696 726 0
-635 -700 727 0
-639 -692 726 0
-639 -696 727 0
-632 -692 727 0
-720 728 0
-724 728 0
-720 -724 729 0
-721 730 0
-725 730 0
-721 -725 731 0
-722 732 0
-726 732 0
-722 -726 733 0
-723 734 0
-727 734 0
-711 735 0
-719 735 0
-711 -719 736 0
-712 737 0
-728 737 0
-712 -728 738 0
-713 739 0
-729 739 0
-713 -729 740 0
-714 741 0
-730 741 0
-714 -730 742 0
-715 743 0
-731 743 0
-715 -731 744 0
-716 745 0
-732 745 0
-716 -732 746 0
-717 747 0
-733 747 0
-717 -733 748 0
-718 749 0
-734 749 0
-575 750 0
-590 751 0
-594 752 0
-702 750 0
-738 751 0
-742 752 0
-746 753 0
-575 -702 751 0
-575 -738 752 0
-575 -742 753 0
-575 -746 754 0
-590 -702 752 0
-590 -738 753 0
-590 -742 754 0
-594 -702 753 0
-594 -738 754 0
-588 755 0
-592 756 0
-596 757 0
-736 755 0
-740 756 0
-744 757 0
-748 758 0
-588 -736 756 0
-588 -740 757 0
-588 -744 758 0
-592 -736 757 0
-592 -740 758 0
-596 -736 758 0
-751 759 0
-755 759 0
-751 -755 760 0
-752 761 0
-756 761 0
-752 -756 762 0
-753 763 0
-757 763 0
-753 -757 764 0
-754 765 0
-758 765 0
-754 -758 766 0
-587 767 0
-591 768 0
-595 769 0
-735 767 0
-739 768 0
-743 769 0
-747 770 0
-587 -735 768 0
-587 -739 769 0
-587 -743 770 0
-587 -747 771 0
-591 -735 769 0
-591 -739 770 0
-591 -743 771 0
-595 -735 770 0
-595 -739 771 0
-589 772 0
-593 773 0
-586 774 0
-737 772 0
-741 773 0
-745 774 0
-749 775 0
-589 -737 773 0
-589 -741 774 0
-589 -745 775 0
-593 -737 774 0
-593 -741 775 0
-586 -737 775 0
-768 776 0
-772 776 0
-768 -772 777 0
-769 778 0
-773 778 0
-769 -773 779 0
-770 780 0
-774 780 0
-770 -774 781 0
-771 782 0
-775 782 0
-759 783 0
-767 783 0
-759 -767 784 0
-760 785 0
-776 785 0
-760 -776 786 0
-761 787 0
-777 787 0
-761 -777 788 0
-762 789 0
-778 789 0
-762 -778 790 0
-763 791 0
-779 791 0
-763 -779 792 0
-764 793 0
-780 793 0
-764 -780 794 0
-765 795 0
-781 795 0
-765 -781 796 0
-766 797 0
-782 797 0
-529 798 0
-544 799 0
-548 800 0
-750 798 0
-786 799 0
-790 800 0
-794 801 0
-529 -750 799 0
-529 -786 800 0
-529 -790 801 0
-529 -794 802 0
-544 -750 800 0
-544 -786 801 0
-544 -790 802 0
-548 -750 801 0
-548 -786 802 0
-542 803 0
-546 804 0
-550 805 0
-784 803 0
-788 804 0
-792 805 0
-796 806 0
-542 -784 804 0
-542 -788 805 0
-542 -792 806 0
-546 -784 805 0
-546 -788 806 0
-550 -784 806 0
-799 807 0
-803 807 0
-799 -803 808 0
-800 809 0
-804 809 0
-800 -804 810 0
-801 811 0
-805 811 0
-801 -805 812 0
-802 813 0
-806 813 0
-802 -806 814 0
-541 815 0
-545 816 0
-549 817 0
-783 815 0
-787 816 0
-791 817 0
-795 818 0
-541 -783 816 0
-541 -787 817 0
-541 -791 818 0
-541 -795 819 0
-545 -783 817 0
-545 -787 818 0
-545 -791 819 0
-549 -783 818 0
-549 -787 819 0
-543 820 0
-547 821 0
-540 822 0
-785 820 0
-789 821 0
-793 822 0
-797 823 0
-543 -785 821 0
-543 -789 822 0
-543 -793 823 0
-547 -785 822 0
-547 -789 823 0
-540 -785 823 0
-816 824 0
-820 824 0
-816 -820 825 0
-817 826 0
-821 826 0
-817 -821 827 0
-818 828 0
-822 828 0
-818 -822 829 0
-819 830 0
-823 830 0
-807 831 0
-815 831 0
-807 -815 832 0
-808 833 0
-824 833 0
-808 -824 834 0
-809 835 0
-825 835 0
-809 -825 836 0
-810 837 0
-826 837 0
-810 -826 838 0
-811 839 0
-827 839 0
-811 -827 840 0
-812 841 0
-828 841 0
-812 -828 842 0
-813 843 0
-829 843 0
-813 -829 844 0
-814 845 0
-830 845 0
-845 0
